(declare-const a Real)
(declare-const b Real)
(declare-const c Real)
(declare-const d Real)
(assert (= (* a b c d) 1))
(assert (>= a 0))
(assert (>= b 0))
(assert (>= c 0))
(assert (>= d 0))
(assert (not (<= (+ a b c d (* (pow (* (pow c (* 2 d (pow c 2))) (pow (* b (pow a 3)) a)) (pow (+ a (* c (pow b 4)) (* d (pow c 2))) -1)) (+ (* -1 a) (* -1 c (pow b 4)) (* -1 d (pow c 2)))) (* -1 a (pow d 4))) 0)))
(check-sat)
(get-model)
(exit)